
Gurobi 6.0.2 (win64) logging started 06/12/15 16:44:57

Read LP format model from file C:\MT\repository\VRPTWMS\instances\mip\fuel\N5-C_DV100-C_SV25_F5_5_No_1.lp
Reading time = 0.01 seconds
(null): 186 rows, 103 columns, 698 nonzeros
Optimize a model with 186 rows, 103 columns and 698 nonzeros
Model has 150 quadratic constraints
WARNING: Only barrier available for SOCP models
Coefficient statistics:
  Matrix range    [1e+00, 1e+02]
  Objective range [9e+00, 1e+03]
  Bounds range    [1e+00, 1e+02]
  RHS range       [1e+00, 1e+02]
Presolve removed 28 rows and 15 columns
Presolve time: 0.01s
Presolved: 413 rows, 224 columns, 1850 nonzeros
Variable types: 119 continuous, 105 integer (78 binary)
Found heuristic solution: objective 5149.6600000
Found heuristic solution: objective 4158.6400000
Optimize a model with 413 rows, 224 columns and 1850 nonzeros
Coefficient statistics:
  Matrix range    [1e+00, 1e+02]
  Objective range [9e+00, 1e+03]
  Bounds range    [1e+00, 1e+02]
  RHS range       [1e+00, 1e+02]
Presolve removed 56 rows and 36 columns
Presolved: 357 rows, 190 columns, 1634 nonzeros


Root relaxation: objective 1.097441e+03, 30 iterations, 0.00 seconds

    Nodes    |    Current Node    |     Objective Bounds      |     Work
 Expl Unexpl |  Obj  Depth IntInf | Incumbent    BestBd   Gap | It/Node Time

     0     0 1097.44105    0    8 4158.64000 1097.44105  73.6%     -    0s
     0     0 1105.65939    0   19 4158.64000 1105.65939  73.4%     -    0s
     0     0 1111.91367    0   18 4158.64000 1111.91367  73.3%     -    0s
     0     0 1112.29284    0   17 4158.64000 1112.29284  73.3%     -    0s
H    0     0                    4147.0400000 1112.29284  73.2%     -    0s
     0     0 1113.36500    0    9 4147.04000 1113.36500  73.2%     -    0s
H    0     0                    3122.2500000 1113.36500  64.3%     -    0s
     0     0 1113.36500    0   12 3122.25000 1113.36500  64.3%     -    0s
     0     0 1113.36500    0   10 3122.25000 1113.36500  64.3%     -    0s
     0     0 1113.36500    0   10 3122.25000 1113.36500  64.3%     -    0s
     0     2 1113.36500    0   10 3122.25000 1113.36500  64.3%     -    0s

Cutting planes:
  Learned: 2
  Gomory: 2
  Cover: 38
  Implied bound: 27
  Clique: 4
  MIR: 17
  GUB cover: 1
  Zero half: 1

Explored 876 nodes (11607 simplex iterations) in 0.25 seconds
Thread count was 2 (of 4 available processors)

Optimal solution found (tolerance 1.00e-04)
Best objective 3.122250000000e+03, best bound 3.122250000000e+03, gap 0.0%
k_c1	100.0
k_c2	99.0
k_c3	2.0
k_c4	100.0
k_c5	12.0
k_dN	-0.0
o_1	0.0
o_2	0.0
o_3	0.0
o_4	0.0
o_5	0.0
p_1	0.0
p_2	0.0
p_3	0.0
p_4	0.0
p_5	0.0
phi_c1	4.0
phi_c2	2.0
phi_c3	2.0
phi_c4	3.0
phi_c5	3.0
phi_dN	0.0
pi_c1	0.0
pi_c2	0.0
pi_c3	0.0
pi_c4	0.0
pi_c5	0.0
pi_dN	-0.0
tauD_c1	31.0
tauD_c2	40.0
tauD_c3	50.0
tauD_c4	10.0
tauD_c5	40.0
tauD_d0	-0.0
tauD_dN	100.0
tauS_c1	0.0
tauS_c2	0.0
tauS_c3	0.0
tauS_c4	0.0
tauS_c5	0.0
tauS_d0	-0.0
tauS_dN	5.0
x_c1_c5	1.0
x_c2_dN	1.0
x_c3_dN	1.0
x_c4_c2	1.0
x_c5_dN	1.0
x_d0_c1	1.0
x_d0_c3	1.0
x_d0_c4	1.0
